(declare-fun temp140_1 () (_ BitVec 64))
(declare-fun var342198 () (_ BitVec 64))
(declare-fun temp140_3 () (_ BitVec 64))
(declare-fun temp140_2 () (_ BitVec 64))
(declare-fun temp140_5 () (_ BitVec 64))
(declare-fun temp140_4 () (_ BitVec 64))
(declare-fun var1586267 () (_ BitVec 64))
(declare-fun temp140_6 () (_ BitVec 64))
(declare-fun var1586268 () (_ BitVec 64))
(declare-fun var1586345 () (_ BitVec 64))
(declare-fun temp140_8 () (_ BitVec 64))
(declare-fun temp140_7 () (_ BitVec 64))
(declare-fun temp140_10 () (_ BitVec 64))
(declare-fun temp140_9 () (_ BitVec 64))
(declare-fun var3355739 () (_ BitVec 64))
(declare-fun temp140_11 () (_ BitVec 64))
(declare-fun var3355740 () (_ BitVec 64))
(declare-fun var3355817 () (_ BitVec 64))
(declare-fun temp140_13 () (_ BitVec 64))
(declare-fun temp140_12 () (_ BitVec 64))
(declare-fun var4008801 () (_ BitVec 64))
(declare-fun temp140_14 () (_ BitVec 64))
(declare-fun var4073585 () (_ BitVec 64))
(declare-fun temp140_15 () (_ BitVec 64))
(declare-fun var4204657 () (_ BitVec 64))
(declare-fun temp140_17 () (_ BitVec 64))
(declare-fun temp140_16 () (_ BitVec 64))
(declare-fun temp140_19 () (_ BitVec 64))
(declare-fun temp140_18 () (_ BitVec 64))
(declare-fun var5190747 () (_ BitVec 64))
(declare-fun temp140_20 () (_ BitVec 64))
(declare-fun var5190748 () (_ BitVec 64))
(declare-fun var5190825 () (_ BitVec 64))
(declare-fun temp140_22 () (_ BitVec 64))
(declare-fun temp140_21 () (_ BitVec 64))
(declare-fun var6105953 () (_ BitVec 64))
(declare-fun temp140_23 () (_ BitVec 64))
(declare-fun var6170737 () (_ BitVec 64))
(declare-fun var5191152 () (_ BitVec 64))
(declare-fun temp140_24 () (_ BitVec 64))
(declare-fun var5191153 () (_ BitVec 64))
(declare-fun var6370876 () (_ BitVec 64))
(declare-fun var1586516 () (_ BitVec 64))
(declare-fun temp140_25 () (_ BitVec 64))
(declare-fun var1586517 () (_ BitVec 64))
(declare-fun temp140_26 () (_ BitVec 64))
(assert (= temp140_1 #x0000000000000000))
(assert (= var342198 temp140_1))
(assert (= temp140_3 #x0000000000000000))
(assert (= temp140_2 temp140_3))
(assert (= temp140_5 #x0000000000000001))
(assert (= temp140_4 temp140_5))
(assert (= var1586267 var342198))
(assert (= temp140_6 #x0000000000000000))
(assert (= var1586268 temp140_6))
(assert (= var1586345 var1586268))
(assert (= temp140_8 #x0000000000000000))
(assert (= temp140_7 temp140_8))
(assert (= temp140_10 #x0000000000000001))
(assert (= temp140_9 temp140_10))
(assert (= var3355739 var1586267))
(assert (= temp140_11 #x0000000000000000))
(assert (= var3355740 temp140_11))
(assert (= var3355817 var3355740))
(assert (= temp140_13 #x0000000000000001))
(assert (= temp140_12 temp140_13))
(assert (= var4008801 var3355739))
(assert (= temp140_14 #x0000000000000000))
(assert (= var4073585 temp140_14))
(assert (= temp140_15 #x0000000000000000))
(assert (= var4204657 temp140_15))
(assert (= temp140_17 #x0000000000000000))
(assert (= temp140_16 temp140_17))
(assert (= temp140_19 #x0000000000000001))
(assert (= temp140_18 temp140_19))
(assert (= var5190747 var1586267))
(assert (= temp140_20 #x0000000000000000))
(assert (= var5190748 temp140_20))
(assert (= var5190825 var5190748))
(assert (= temp140_22 #x0000000000000001))
(assert (= temp140_21 temp140_22))
(assert (= var6105953 var5190747))
(assert (= temp140_23 #x0000000000000000))
(assert (= var6170737 temp140_23))
(assert (= var5191152 var5190825))
(assert (= temp140_24 #x0000000000000000))
(assert (= var5191153
   (ite (distinct var5191152 temp140_24) #x0000000000000001 #x0000000000000000)))
(assert (= var6370876 var5191153))
(assert (= var1586516 var1586345))
(assert (= temp140_25 #x0000000000000000))
(assert (= var1586517
   (ite (= var1586516 temp140_25) #x0000000000000001 #x0000000000000000)))
(assert (= temp140_26 #x0000000000000001))
(assert (= var1586517 temp140_26))
(model-add temp140_1 () (_ BitVec 64) #x0000000000000000)
(model-add var342198 () (_ BitVec 64) #x0000000000000000)
(model-add temp140_3 () (_ BitVec 64) #x0000000000000000)
(model-add temp140_2 () (_ BitVec 64) #x0000000000000000)
(model-add temp140_5 () (_ BitVec 64) #x0000000000000001)
(model-add temp140_4 () (_ BitVec 64) #x0000000000000001)
(model-add var1586267 () (_ BitVec 64) #x0000000000000000)
(model-add temp140_6 () (_ BitVec 64) #x0000000000000000)
(model-add var1586268 () (_ BitVec 64) #x0000000000000000)
(model-add var1586345 () (_ BitVec 64) #x0000000000000000)
(model-add temp140_8 () (_ BitVec 64) #x0000000000000000)
(model-add temp140_7 () (_ BitVec 64) #x0000000000000000)
(model-add temp140_10 () (_ BitVec 64) #x0000000000000001)
(model-add temp140_9 () (_ BitVec 64) #x0000000000000001)
(model-add var3355739 () (_ BitVec 64) #x0000000000000000)
(model-add temp140_11 () (_ BitVec 64) #x0000000000000000)
(model-add var3355740 () (_ BitVec 64) #x0000000000000000)
(model-add var3355817 () (_ BitVec 64) #x0000000000000000)
(model-add temp140_13 () (_ BitVec 64) #x0000000000000001)
(model-add temp140_12 () (_ BitVec 64) #x0000000000000001)
(model-add var4008801 () (_ BitVec 64) #x0000000000000000)
(model-add temp140_14 () (_ BitVec 64) #x0000000000000000)
(model-add var4073585 () (_ BitVec 64) #x0000000000000000)
(model-add temp140_15 () (_ BitVec 64) #x0000000000000000)
(model-add var4204657 () (_ BitVec 64) #x0000000000000000)
(model-add temp140_17 () (_ BitVec 64) #x0000000000000000)
(model-add temp140_16 () (_ BitVec 64) #x0000000000000000)
(model-add temp140_19 () (_ BitVec 64) #x0000000000000001)
(model-add temp140_18 () (_ BitVec 64) #x0000000000000001)
(model-add var5190747 () (_ BitVec 64) #x0000000000000000)
(model-add temp140_20 () (_ BitVec 64) #x0000000000000000)
(model-add var5190748 () (_ BitVec 64) #x0000000000000000)
(model-add var5190825 () (_ BitVec 64) #x0000000000000000)
(model-add temp140_22 () (_ BitVec 64) #x0000000000000001)
(model-add temp140_21 () (_ BitVec 64) #x0000000000000001)
(model-add var6105953 () (_ BitVec 64) #x0000000000000000)
(model-add temp140_23 () (_ BitVec 64) #x0000000000000000)
(model-add var6170737 () (_ BitVec 64) #x0000000000000000)
(model-add var5191152 () (_ BitVec 64) #x0000000000000000)
(model-add temp140_24 () (_ BitVec 64) #x0000000000000000)
(model-add var5191153 () (_ BitVec 64) #x0000000000000000)
(model-add var6370876 () (_ BitVec 64) #x0000000000000000)
(model-add var1586516 () (_ BitVec 64) #x0000000000000000)
(model-add temp140_25 () (_ BitVec 64) #x0000000000000000)
(model-add var1586517 () (_ BitVec 64) #x0000000000000001)
(model-add temp140_26 () (_ BitVec 64) #x0000000000000001)




